NAME : tsp30_13.199.tour
COMMENT : Length = 199
COMMENT : Found by LKH [Keld Helsgaun]
TYPE : TOUR
DIMENSION : 30
TOUR_SECTION
1
3
30
10
9
15
8
4
18
21
11
17
27
20
2
25
16
24
28
6
22
13
19
12
5
29
26
14
23
7
-1
EOF
